Coin0506I Presolve 119804 (-40988) rows, 80396 (0) columns and 358411 (-41579) elements
4.93239e+06 elements in sparse Cholesky, flop count 2.52662e+09
Solver name: Clp
Solve time: 626.755629327
Termination status: OPTIMAL
Result count: 1
Primal status: FEASIBLE_POINT
Dual status: FEASIBLE_POINT
Clp0035I 0 Primal 3995828.9 Dual -20337698 Complementarity 40199200 - 0 fixed, rank 119804
Clp0035I 1 Primal 2783197.7 Dual -282209.85 Complementarity 3095288.6 - 0 fixed, rank 119804
Clp0035I 2 Primal 14366.915 Dual -5853.066 Complementarity 20222.967 - 0 fixed, rank 119804
Clp0035I 3 Primal 505.15396 Dual -1325.2692 Complementarity 1830.4485 - 0 fixed, rank 119804
Clp0035I 4 Primal 359.72352 Dual -382.91518 Complementarity 742.64094 - 0 fixed, rank 119804
Clp0035I 5 Primal 151.24449 Dual -288.34481 Complementarity 439.5893 - 0 fixed, rank 119804
Clp0035I 6 Primal 83.99725 Dual -2.7688412 Complementarity 86.766094 - 0 fixed, rank 119804
Clp0035I 7 Primal 66.237257 Dual 43.212615 Complementarity 23.024643 - 0 fixed, rank 119804
Clp0035I 8 Primal 64.39262 Dual 55.369504 Complementarity 9.0231173 - 0 fixed, rank 119804
Clp0035I 9 Primal 62.008884 Dual 59.706284 Complementarity 2.3042481 - 0 fixed, rank 119804
Clp0035I 10 Primal 61.354158 Dual 60.792387 Complementarity 0.5716129 - 0 fixed, rank 119804
Clp0035I 11 Primal 61.19596 Dual 61.039283 Complementarity 0.20241988 - 0 fixed, rank 119804
Clp0035I 12 Primal 61.068902 Dual 61.042306 Complementarity 0.049772642 - 0 fixed, rank 119804
Clp0035I 13 Primal 61.034772 Dual 61.0337 Complementarity 0.0039409045 - 0 fixed, rank 119804
Clp0035I 14 Primal 61.033909 Dual 61.0332 Complementarity 0.002317203 - 0 fixed, rank 119804
Clp0035I 15 Primal 61.033098 Dual 61.03265 Complementarity 0.00090250163 - 8 fixed, rank 119804
Clp0035I 16 Primal 61.032388 Dual 61.032633 Complementarity 6.8165684e-05 - 13024 fixed, rank 119804
Clp0035I 17 Primal 61.032458 Dual 61.032619 Complementarity 1.967348e-05 - 32815 fixed, rank 119804
Clp0035I 18 Primal 61.032506 Dual 61.032565 Complementarity 8.0869212e-06 - 40729 fixed, rank 119804
Clp0035I 19 Primal 61.032579 Dual 61.032513 Complementarity 6.6198305e-07 - 41147 fixed, rank 119804
Clp0035I 20 Primal 61.03262 Dual 61.032418 Complementarity 2.6530919e-08 - 41244 fixed, rank 119804
Clp0035I 21 Primal 61.03262 Dual 61.032412 Complementarity 1.0977954e-09 - 41256 fixed, rank 119804
Clp0035I 22 Primal 61.032498 Dual 61.032412 Complementarity 1.1035553e-10 - 41260 fixed, rank 119804
Clp0035I 23 Primal 61.032444 Dual 61.032412 Complementarity 6.3566222e-11 - 41260 fixed, rank 119804
Clp0035I 24 Primal 61.032522 Dual 61.032412 Complementarity 5.6396082e-11 - 41261 fixed, rank 119804
Clp0035I 25 Primal 61.032532 Dual 61.032412 Complementarity 3.4053396e-11 - 41261 fixed, rank 119804
Clp0035I 26 Primal 61.032531 Dual 61.032412 Complementarity 3.3290985e-11 - 41261 fixed, rank 119804
Clp0035I 27 Primal 61.032527 Dual 61.032412 Complementarity 3.1399027e-11 - 41261 fixed, rank 119804
Clp0046I At end primal/dual infeasibilities 0/0, complementarity gap 0, objective 61.032444
Clp0006I 0  Obj 61.03193 Primal inf 2.9357017 (626) Dual inf 2.6669684e+20 (1402)
Clp0006I 774  Obj 61.032355 Primal inf 0.078876573 (516) Dual inf 1.2635388e+20 (1315)
Clp0006I 1548  Obj 61.032441 Primal inf 0.012598743 (303) Dual inf 8.4122761e+18 (1127)
Clp0006I 2322  Obj 61.032452 Primal inf 0.010309848 (293) Dual inf 8.4463631e+18 (1129)
Clp0006I 3096  Obj 61.032453 Primal inf 0.01024462 (285) Dual inf 8.443131e+18 (1129)
Clp0006I 3870  Obj 61.032446 Primal inf 0.0065472591 (257) Dual inf 7.6331155e+18 (1113)
Clp0006I 4644  Obj 61.032445 Primal inf 0.0041995713 (223) Dual inf 7.6203685e+18 (1000)
Clp0006I 5418  Obj 61.032446 Primal inf 0.0040466315 (217) Dual inf 7.3774465e+18 (1003)
Clp0006I 6192  Obj 61.032445 Primal inf 0.0038318066 (273) Dual inf 6.0342346e+18 (1048)
Clp0006I 6966  Obj 61.032445 Primal inf 0.0035084672 (259) Dual inf 6.0228246e+18 (1027)
Clp0006I 7740  Obj 61.032443 Primal inf 0.0017953233 (245) Dual inf 5.1226193e+18 (1015)
Clp0006I 8514  Obj 61.032443 Primal inf 0.0013001047 (221) Dual inf 5.1136156e+18 (985)
Clp0006I 9288  Obj 61.032443 Primal inf 0.0012965498 (220) Dual inf 5.1441067e+18 (980)
Clp0006I 10062  Obj 61.032443 Primal inf 0.001269796 (206) Dual inf 5.1431745e+18 (980)
Clp0006I 10836  Obj 61.032443 Primal inf 0.0011581795 (174) Dual inf 4.0256882e+18 (959)
Clp0006I 11610  Obj 61.032443 Primal inf 0.00093909511 (180) Dual inf 4.0170463e+18 (978)
Clp0006I 12384  Obj 61.032443 Primal inf 0.0009181449 (175) Dual inf 3.9241721e+18 (986)
Clp0006I 13158  Obj 61.032444 Primal inf 0.00057248041 (141) Dual inf 3.4416443e+18 (959)
Clp0006I 13932  Obj 61.032444 Primal inf 0.00052284606 (127) Dual inf 3.4388561e+18 (858)
Clp0006I 14706  Obj 61.032446 Primal inf 0.00027038298 (97) Dual inf 1.161357e+18 (815)
Clp0006I 15480  Obj 61.032446 Primal inf 0.00027060397 (95) Dual inf 1.161354e+18 (838)
Clp0006I 16254  Obj 61.032446 Primal inf 0.00026668351 (94) Dual inf 1.1586513e+18 (834)
Clp0006I 17028  Obj 61.032446 Primal inf 0.00026406182 (94) Dual inf 1.1370482e+18 (845)
Clp0006I 17802  Obj 61.032446 Primal inf 0.00026414176 (94) Dual inf 1.1372847e+18 (859)
Clp0006I 18576  Obj 61.032446 Primal inf 0.00024985093 (88) Dual inf 1.1371832e+18 (868)
Clp0006I 19350  Obj 61.032446 Primal inf 0.00024855304 (87) Dual inf 1.1188698e+18 (890)
Clp0006I 20124  Obj 61.032446 Primal inf 0.00024846579 (87) Dual inf 1.118668e+18 (908)
Clp0006I 20898  Obj 61.032446 Primal inf 0.00024764444 (85) Dual inf 1.0950156e+18 (930)
Clp0006I 21672  Obj 61.032446 Primal inf 0.0002441904 (83) Dual inf 1.0948582e+18 (986)
Clp0006I 22446  Obj 61.032446 Primal inf 0.00023833292 (84) Dual inf 1.0584038e+18 (1010)
Clp0006I 23220  Obj 61.032446 Primal inf 0.00023812224 (84) Dual inf 1.0566644e+18 (1028)
Clp0006I 23994  Obj 61.032446 Primal inf 0.00023793788 (84) Dual inf 1.0566388e+18 (1238)
Clp0006I 24768  Obj 61.032446 Primal inf 0.00023775028 (83) Dual inf 1.0566483e+18 (1267)
Clp0006I 25542  Obj 61.032447 Primal inf 0.00023247741 (80) Dual inf 1.0605661e+18 (1214)
Clp0006I 26316  Obj 61.032447 Primal inf 0.00021421776 (78) Dual inf 9.1066923e+17 (1410)
Clp0006I 27090  Obj 61.032447 Primal inf 0.00020859783 (76) Dual inf 8.5884336e+17 (1566)
Clp0006I 27795  Obj 61.032447 Primal inf 0.00020859098 (76) Dual inf 8.5878753e+17 (1660)
Clp0006I 28182  Obj 61.032447 Primal inf 0.00020859101 (76) Dual inf 8.5878753e+17 (1769)
Clp0006I 28666  Obj 61.032447 Primal inf 0.00020824523 (77) Dual inf 8.6348766e+17 (1904)
Clp0006I 29271  Obj 61.032447 Primal inf 0.00020831399 (77) Dual inf 8.6405074e+17 (1973)
Clp0006I 30028  Obj 61.032447 Primal inf 0.00020819083 (77) Dual inf 8.6306538e+17 (2051)
Clp0006I 30802  Obj 61.032447 Primal inf 0.0001979407 (73) Dual inf 7.6562228e+17 (2406)
Clp0006I 31576  Obj 61.032447 Primal inf 0.00018060209 (66) Dual inf 5.4666003e+17 (2694)
Clp0006I 32350  Obj 61.032447 Primal inf 0.00018051937 (66) Dual inf 5.4599386e+17 (3090)
Clp0006I 33124  Obj 61.032447 Primal inf 0.00015355849 (63) Dual inf 2.9502856e+17 (3357)
Clp0006I 33898  Obj 61.032447 Primal inf 0.00014152835 (47) Dual inf 8.8681546e+16 (3887)
Clp0006I 34672  Obj 61.032447 Primal inf 0.00014147754 (47) Dual inf 8.8681374e+16 (4411)
Clp0006I 35446  Obj 61.032447 Primal inf 0.00013462379 (41) Dual inf 6.247877e+16 (4658)
Clp0006I 36220  Obj 61.032447 Primal inf 0.00013238117 (38) Dual inf 6.2478722e+16 (5078)
Clp0006I 36994  Obj 61.032447 Primal inf 0.00013027981 (37) Dual inf 6.2477246e+16 (5285)
Clp0006I 37768  Obj 61.032448 Primal inf 0.00011489154 (35) Dual inf 6.2485809e+16 (5283)
Clp0006I 38542  Obj 61.032448 Primal inf 0.00011439342 (35) Dual inf 5.7929579e+16 (5361)
Clp0006I 39316  Obj 61.032448 Primal inf 0.0001146798 (35) Dual inf 6.0903571e+16 (5521)
Clp0006I 40090  Obj 61.032448 Primal inf 0.00011247021 (34) Dual inf 6.0904781e+16 (5652)
Clp0006I 40864  Obj 61.032448 Primal inf 0.00010951869 (31) Dual inf 5.192796e+10 (5152)
Clp0006I 41638  Obj 61.032448 Primal inf 0.00010860774 (30) Dual inf 3.0561015e+10 (5492)
Clp0006I 42412  Obj 61.032448 Primal inf 0.00010860707 (30) Dual inf 3.1148892e+10 (5472)
Clp0006I 43186  Obj 61.032448 Primal inf 0.00010860686 (30) Dual inf 3.1548644e+10 (5404)
Clp0006I 43960  Obj 61.032448 Primal inf 0.00010860586 (30) Dual inf 3.2242065e+10 (5436)
Clp0006I 44734  Obj 61.032448 Primal inf 0.00010860437 (30) Dual inf 3.3289341e+10 (5319)
Clp0006I 45508  Obj 61.032448 Primal inf 0.00010860414 (30) Dual inf 3.3499953e+10 (5242)
Clp0006I 46282  Obj 61.032448 Primal inf 0.00010859684 (30) Dual inf 3.3556855e+10 (5129)
Clp0006I 47056  Obj 61.032448 Primal inf 0.00010860229 (30) Dual inf 3.3821583e+10 (5115)
Clp0006I 47830  Obj 61.032448 Primal inf 0.0001086072 (30) Dual inf 3.5619049e+10 (4886)
Clp0006I 48604  Obj 61.032448 Primal inf 0.0001086105 (30) Dual inf 3.758724e+10 (4801)
Clp0006I 49378  Obj 61.032448 Primal inf 0.00010860908 (30) Dual inf 3.8827202e+10 (4398)
Clp0006I 50152  Obj 61.032448 Primal inf 0.0001085902 (30) Dual inf 4.0208115e+10 (3909)
Clp0006I 50892  Obj 61.032449 Primal inf 0.00010851824 (30) Dual inf 4.6554339e+10 (3415)
Clp0006I 51666  Obj 61.032449 Primal inf 0.00010795354 (30) Dual inf 8.66431e+10 (2957)
Clp0006I 52343  Obj 61.032448 Primal inf 0.0001083472 (31) Dual inf 6.8811856e+11 (2495)
Clp0006I 52904  Obj 61.032448 Primal inf 0.00010878508 (30) Dual inf 1.1450419e+11 (1930)
Clp0006I 53544  Obj 61.032448 Primal inf 0.00010881615 (30) Dual inf 1.6486685e+11 (1671)
Clp0006I 54319  Obj 61.032448 Primal inf 9.6940728e-05 (26) Dual inf 1.0249161e+11 (1605)
Clp0006I 55093  Obj 61.032448 Primal inf 9.6927165e-05 (26) Dual inf 1.4699539e+11 (1559)
Clp0006I 55867  Obj 61.032447 Primal inf 9.6941322e-05 (26) Dual inf 2.5294462e+11 (1516)
Clp0006I 56641  Obj 61.032448 Primal inf 8.8999287e-05 (25) Dual inf 3.0551754e+11 (1458)
Clp0006I 57416  Obj 61.032449 Primal inf 7.0597214e-05 (22) Dual inf 1.0731665e+12 (1447)
Clp0006I 58191  Obj 61.032449 Primal inf 5.9873186e-05 (18) Dual inf 6.2612792e+10 (1390)
Clp0006I 58966  Obj 61.032449 Primal inf 5.7473825e-05 (18) Dual inf 7.8824616e+11 (1334)
Clp0006I 59740  Obj 61.032449 Primal inf 4.9853441e-05 (16) Dual inf 2.5721733e+11 (1267)
Clp0006I 60517  Obj 61.032449 Primal inf 4.3274301e-05 (13) Dual inf 5.3450236e+11 (1247)
Clp0006I 61293  Obj 61.032448 Primal inf 3.8272404e-05 (12) Dual inf 1.3376597e+12 (1185)
Clp0006I 62069  Obj 61.032447 Primal inf 2.8084562e-05 (8) Dual inf 8.0096903e+10 (1196)
Clp0006I 62843  Obj 61.032449 Primal inf 2.1133003e-05 (7) Dual inf 8.6536187e+10 (1200)
Clp0006I 63619  Obj 61.032448 Primal inf 4.9216706e-06 (5) Dual inf 1.1220349e+11 (1041)
Clp0006I 64393  Obj 61.032449 Primal inf 2.0780511e-06 (2) Dual inf 2.1070194e+10 (958)
Clp0006I 64903  Obj 61.032451 Primal inf 2.9650083e-07 (1) Dual inf 1.5438116e+10 (729)
Clp0029I End of values pass after 64919 iterations
Clp0006I 64919  Obj 61.032413 Dual inf 0.032123949 (339)
Clp0029I End of values pass after 64920 iterations
Clp0006I 64920  Obj 61.032413 Dual inf 0.032125042 (339)
Clp0003I Stopped - objective value 61.032413
Clp0006I 0  Obj 61.032413
Clp0006I 88  Obj 61.031932 Primal inf 0.055467774 (13)
Clp0006I 116  Obj 61.032824 Primal inf 0.1906139 (31) Dual inf 1.5252277e-06 (1)
Clp0029I End of values pass after 268 iterations
Clp0006I 268  Obj 61.032412 Primal inf 0.029340222 (10)
Clp0003I Stopped - objective value 61.032412
Clp0006I 0  Obj 61.032413 Dual inf 0.00042097274 (40)
Clp0029I End of values pass after 5 iterations
Clp0006I 5  Obj 61.032412 Dual inf 0.00042517753 (43)
Clp0003I Stopped - objective value 61.032412
Clp0006I 0  Obj 61.032412 Dual inf 0.47076701 (47)
Clp0006I 45  Obj 61.032412
Clp0000I Optimal - objective value 61.032412
Coin0511I After Postsolve, objective 61.032412, infeasibilities - dual 0 (0), primal 0 (0)
Clp0032I Optimal objective 61.032412 - 72 iterations time 619.192, Presolve 0.32
